benchmarks/bfuzz0/626832077316702790816071140691000931770.smt2
(set-logic QF_FP)
(declare-const x0 (_ FloatingPoint 11 53))
(declare-const x1 (_ FloatingPoint 11 53))
(assert (fp.eq (fp.neg (fp.div RNE x1 x0)) (fp.div RNE (fp.mul RNE x0 x1) (fp.neg x0))))
(assert (fp.gt (fp.add RNE (fp.neg x1) (fp.neg x1)) (fp.sub RNE (fp.sub RNE x0 x1) (fp.div RNE x0 x0))))
(assert (fp.gt (fp.add RNE (fp.neg x0) (fp.div RNE x0 x1)) (fp.mul RNE (fp.sub RNE x0 x0) (fp.div RNE x0 x1))))
(assert (fp.geq (fp.sub RNE (fp.mul RNE x0 x0) (fp.mul RNE x1 x1)) (fp.neg (fp.sub RNE x1 x0))))
(check-sat)
