db/data/626832077316702790816071140691000931770.z3.out
-------------------
2500.105796088
